745.88 0
0 67 34 46 52 27 45 4 0
0 7 53 11 66 59 14 35 0
0 29 5 37 71 60 70 20 15 57 13 54 19 8 0
0 6 33 63 23 56 24 49 16 51 0
0 68 74 28 61 21 69 36 47 48 30 0
0 73 1 43 41 42 64 22 62 2 75 0
0 26 58 10 38 65 31 39 72 12 17 0
0 3 44 32 50 18 55 25 9 40 0
